\ Model subproblem
\ LP format - for model browsing. Use MPS format to capture full model detail.
Maximize
  0.3870967741935484 use[0] + 0.4516129032258064 use[1]
   + 0.1290322580645161 use[2] + 0.0806451612903225 use[3]
   + 0.0967741935483871 use[4]
Subject To
 R0: 38 use[0] + 44 use[1] + 13 use[2] + 9 use[3] + 10 use[4] <= 100
Bounds
Generals
 use[0] use[1] use[2] use[3] use[4]
End
